
Gurobi 8.1.0 (mac64, Python) logging started Mon May 31 16:41:39 2021


Gurobi 8.1.0 (mac64, Python) logging started Mon May 31 16:42:56 2021


Gurobi 8.1.0 (mac64, Python) logging started Mon May 31 16:48:23 2021

Academic license - for non-commercial use only
